1	40
34 9	15 59	26 49	30 16	4 30	8 32	7 7	22 74	28 10	24 73	38 41	11 65	0 42	21 76	3 76	23 54	37 59	32 53	16 27	33 89	12 18	36 67	39 19	14 34	27 11	9 2	2 45	10 53	18 9	31 39	29 86	5 81	6 92	35 36	25 65	13 68	17 47	1 20	19 19	20 23
